n_rects = 23;
paper_w = 36;
paper_h = 36;
w = [3, 3, 3, 3, 3, 3, 3, 3, 3, 3, 3, 3, 3, 3, 3, 4, 4, 4, 5, 5, 5, 5, 12];
h = [3, 4, 5, 6, 7, 8, 9, 10, 11, 12, 14, 15, 16, 24, 36, 3, 11, 22, 3, 4, 14, 15, 36];
